1040
1 0 5 521 0 1040 1 1039 1 1038 1 1037 1
2 0 5 522 1 660 1 689 1 804 1 841 1
3 0 5 523 1 699 1 818 1 920 1 927 1
4 0 5 524 1 977 1 708 1 804 1 830 1
5 0 5 525 1 938 1 863 1 610 1 766 1
6 0 5 526 1 539 1 809 1 702 1 668 1
7 0 5 527 1 868 1 983 1 928 1 707 1
8 0 5 528 1 581 1 545 1 651 1 644 1
9 0 5 529 1 639 1 637 1 879 1 925 1
10 0 5 530 1 754 1 852 1 776 1 1015 1
11 0 5 531 1 664 1 580 1 742 1 997 1
12 0 5 532 1 675 1 765 1 611 1 698 1
13 0 5 533 1 805 1 729 1 919 1 743 1
14 0 5 534 1 829 1 604 1 617 1 825 1
15 0 5 535 1 909 1 882 1 1019 1 767 1
16 0 5 536 1 908 1 956 1 715 1 876 1
17 0 5 537 1 984 1 556 1 774 1 720 1
18 0 5 538 1 663 1 822 1 640 1 862 1
19 0 5 539 1 702 1 951 1 526 1 809 1
20 0 5 540 1 998 1 927 1 741 1 716 1
21 0 5 541 1 661 1 633 1 561 1 774 1
22 0 5 542 1 860 1 807 1 739 1 769 1
23 0 5 543 1 542 1 807 1 937 1 551 1
24 0 5 544 1 567 1 884 1 721 1 796 1
25 0 5 545 1 581 1 644 1 766 1 651 1
26 0 5 546 1 936 1 839 1 664 1 677 1
27 0 5 547 1 555 1 856 1 579 1 860 1
28 0 5 548 1 1006 1 829 1 915 1 568 1
29 0 5 549 1 731 1 937 1 890 1 1003 1
30 0 5 550 1 749 1 866 1 613 1 831 1
31 0 5 551 1 543 1 789 1 650 1 935 1
32 0 5 552 1 940 1 1018 1 591 1 857 1
33 0 5 553 1 969 1 849 1 728 1 952 1
34 0 5 554 1 687 1 574 1 976 1 874 1
35 0 5 555 1 547 1 579 1 856 1 778 1
36 0 5 556 1 537 1 720 1 774 1 806 1
37 0 5 557 1 898 1 641 1 606 1 907 1
38 0 5 558 1 610 1 952 1 621 1 823 1
39 0 5 559 1 721 1 544 1 796 1 986 1
40 0 5 560 1 976 1 775 1 713 1 931 1
41 0 5 561 1 679 1 992 1 736 1 889 1
42 0 5 562 1 596 1 798 1 658 1 652 1
43 0 5 563 1 758 1 572 1 937 1 697 1
44 0 5 564 1 620 1 926 1 767 1 988 1
45 0 5 565 1 573 1 580 1 956 1 932 1
46 0 5 566 1 738 1 521 1 584 1 930 1
47 0 5 567 1 811 1 544 1 884 1 756 1
48 0 5 568 1 629 1 760 1 548 1 825 1
49 0 5 569 1 973 1 983 1 929 1 606 1
50 0 5 570 1 686 1 888 1 684 1 703 1
51 0 5 571 1 906 1 676 1 988 1 1020 1
52 0 5 572 1 937 1 714 1 803 1 563 1
53 0 5 573 1 580 1 565 1 979 1 867 1
54 0 5 574 1 853 1 557 1 687 1 898 1
55 0 5 575 1 617 1 985 1 534 1 629 1
56 0 5 576 1 775 1 683 1 560 1 791 1
57 0 5 577 1 742 1 580 1 531 1 772 1
58 0 5 578 1 525 1 610 1 621 1 964 1
59 0 5 579 1 611 1 911 1 941 1 918 1
60 0 5 580 1 577 1 531 1 742 1 688 1
61 0 5 581 1 545 1 644 1 766 1 528 1
62 0 5 582 1 560 1 976 1 793 1 931 1
63 0 5 583 1 833 1 814 1 698 1 918 1
64 0 5 584 1 521 1 781 1 738 1 966 1
65 0 5 585 1 864 1 906 1 1008 1 829 1
66 0 5 586 1 834 1 747 1 971 1 547 1
67 0 5 587 1 913 1 846 1 753 1 663 1
68 0 5 588 1 740 1 878 1 595 1 608 1
69 0 5 589 1 563 1 758 1 815 1 1021 1
70 0 5 590 1 788 1 746 1 603 1 832 1
71 0 5 591 1 1018 1 817 1 552 1 546 1
72 0 5 592 1 942 1 1015 1 987 1 1004 1
73 0 5 593 1 739 1 786 1 769 1 542 1
74 0 5 594 1 899 1 919 1 728 1 952 1
75 0 5 595 1 880 1 588 1 801 1 710 1
76 0 5 596 1 658 1 562 1 652 1 874 1
77 0 5 597 1 680 1 696 1 701 1 843 1
78 0 5 598 1 649 1 612 1 779 1 783 1
79 0 5 599 1 887 1 975 1 669 1 614 1
80 0 5 600 1 830 1 980 1 828 1 619 1
81 0 5 601 1 549 1 914 1 731 1 937 1
82 0 5 602 1 528 1 651 1 799 1 581 1
83 0 5 603 1 831 1 869 1 550 1 896 1
84 0 5 604 1 762 1 825 1 534 1 824 1
85 0 5 605 1 982 1 873 1 722 1 695 1
86 0 5 606 1 929 1 627 1 557 1 641 1
87 0 5 607 1 722 1 812 1 852 1 605 1
88 0 5 608 1 912 1 740 1 820 1 946 1
89 0 5 609 1 779 1 943 1 783 1 614 1
90 0 5 610 1 578 1 558 1 553 1 621 1
91 0 5 611 1 1005 1 941 1 911 1 939 1
92 0 5 612 1 783 1 598 1 779 1 912 1
93 0 5 613 1 831 1 590 1 746 1 832 1
94 0 5 614 1 943 1 854 1 609 1 669 1
95 0 5 615 1 861 1 823 1 919 1 729 1
96 0 5 616 1 893 1 944 1 855 1 916 1
97 0 5 617 1 821 1 534 1 575 1 760 1
98 0 5 618 1 1009 1 718 1 670 1 871 1
99 0 5 619 1 960 1 830 1 674 1 876 1
100 0 5 620 1 564 1 988 1 767 1 926 1
101 0 5 621 1 578 1 766 1 558 1 743 1
102 0 5 622 1 885 1 793 1 804 1 582 1
103 0 5 623 1 672 1 691 1 639 1 916 1
104 0 5 624 1 763 1 521 1 640 1 930 1
105 0 5 625 1 951 1 809 1 1004 1 942 1
106 0 5 626 1 681 1 781 1 521 1 910 1
107 0 5 627 1 616 1 734 1 916 1 855 1
108 0 5 628 1 671 1 846 1 1001 1 913 1
109 0 5 629 1 568 1 821 1 760 1 706 1
110 0 5 630 1 1012 1 800 1 757 1 700 1
111 0 5 631 1 953 1 841 1 657 1 659 1
112 0 5 632 1 961 1 956 1 800 1 932 1
113 0 5 633 1 720 1 679 1 561 1 774 1
114 0 5 634 1 969 1 848 1 849 1 594 1
115 0 5 635 1 685 1 979 1 657 1 916 1
116 0 5 636 1 879 1 907 1 637 1 639 1
117 0 5 637 1 951 1 529 1 636 1 879 1
118 0 5 638 1 872 1 838 1 993 1 751 1
119 0 5 639 1 672 1 623 1 925 1 879 1
120 0 5 640 1 930 1 705 1 521 1 538 1
121 0 5 641 1 557 1 606 1 907 1 636 1
122 0 5 642 1 878 1 946 1 588 1 887 1
123 0 5 643 1 891 1 1003 1 754 1 922 1
124 0 5 644 1 651 1 581 1 545 1 799 1
125 0 5 645 1 615 1 823 1 729 1 711 1
126 0 5 646 1 713 1 931 1 656 1 775 1
127 0 5 647 1 915 1 825 1 548 1 706 1
128 0 5 648 1 824 1 869 1 924 1 604 1
129 0 5 649 1 598 1 912 1 779 1 612 1
130 0 5 650 1 935 1 789 1 733 1 551 1
131 0 5 651 1 799 1 622 1 644 1 836 1
132 0 5 652 1 562 1 596 1 874 1 782 1
133 0 5 653 1 725 1 696 1 921 1 714 1
134 0 5 654 1 748 1 954 1 802 1 1019 1
135 0 5 655 1 790 1 926 1 988 1 1020 1
136 0 5 656 1 773 1 928 1 713 1 560 1
137 0 5 657 1 979 1 685 1 635 1 830 1
138 0 5 658 1 798 1 596 1 968 1 618 1
139 0 5 659 1 631 1 855 1 944 1 691 1
140 0 5 660 1 836 1 522 1 804 1 689 1
141 0 5 661 1 824 1 774 1 541 1 896 1
142 0 5 662 1 820 1 711 1 608 1 875 1
143 0 5 663 1 587 1 538 1 913 1 862 1
144 0 5 664 1 817 1 577 1 979 1 591 1
145 0 5 665 1 1015 1 987 1 530 1 817 1
146 0 5 666 1 1007 1 726 1 894 1 778 1
147 0 5 667 1 871 1 618 1 798 1 962 1
148 0 5 668 1 865 1 797 1 826 1 917 1
149 0 5 669 1 854 1 538 1 822 1 663 1
150 0 5 670 1 626 1 692 1 837 1 687 1
151 0 5 671 1 628 1 990 1 846 1 1001 1
152 0 5 672 1 827 1 639 1 691 1 623 1
153 0 5 673 1 678 1 563 1 803 1 697 1
154 0 5 674 1 850 1 960 1 830 1 619 1
155 0 5 675 1 768 1 698 1 532 1 727 1
156 0 5 676 1 1002 1 571 1 537 1 556 1
157 0 5 677 1 546 1 664 1 772 1 839 1
158 0 5 678 1 972 1 803 1 673 1 835 1
159 0 5 679 1 633 1 720 1 564 1 806 1
160 0 5 680 1 704 1 714 1 778 1 696 1
161 0 5 681 1 959 1 521 1 781 1 626 1
162 0 5 682 1 816 1 785 1 800 1 956 1
163 0 5 683 1 791 1 775 1 713 1 576 1
164 0 5 684 1 862 1 716 1 943 1 686 1
165 0 5 685 1 635 1 979 1 657 1 830 1
166 0 5 686 1 684 1 862 1 716 1 669 1
167 0 5 687 1 670 1 837 1 692 1 554 1
168 0 5 688 1 565 1 956 1 932 1 997 1
169 0 5 689 1 522 1 828 1 660 1 795 1
170 0 5 690 1 813 1 981 1 881 1 719 1
171 0 5 691 1 902 1 631 1 877 1 827 1
172 0 5 692 1 859 1 670 1 798 1 626 1
173 0 5 693 1 884 1 698 1 727 1 756 1
174 0 5 694 1 851 1 607 1 852 1 812 1
175 0 5 695 1 852 1 812 1 655 1 839 1
176 0 5 696 1 921 1 904 1 789 1 597 1
177 0 5 697 1 673 1 563 1 758 1 572 1
178 0 5 698 1 693 1 675 1 532 1 583 1
179 0 5 699 1 523 1 818 1 920 1 918 1
180 0 5 700 1 757 1 1012 1 630 1 785 1
181 0 5 701 1 843 1 597 1 858 1 903 1
182 0 5 702 1 539 1 907 1 951 1 557 1
183 0 5 703 1 887 1 946 1 710 1 945 1
184 0 5 704 1 778 1 789 1 551 1 807 1
185 0 5 705 1 640 1 566 1 521 1 738 1
186 0 5 706 1 825 1 568 1 915 1 548 1
187 0 5 707 1 847 1 799 1 562 1 976 1
188 0 5 708 1 892 1 965 1 793 1 970 1
189 0 5 709 1 999 1 729 1 805 1 558 1
190 0 5 710 1 595 1 880 1 946 1 588 1
191 0 5 711 1 897 1 718 1 875 1 729 1
192 0 5 712 1 737 1 842 1 719 1 981 1
193 0 5 713 1 656 1 646 1 576 1 775 1
194 0 5 714 1 696 1 597 1 680 1 758 1
195 0 5 715 1 536 1 630 1 700 1 1012 1
196 0 5 716 1 1010 1 923 1 814 1 927 1
197 0 5 717 1 903 1 811 1 567 1 810 1
198 0 5 718 1 711 1 871 1 897 1 1009 1
199 0 5 719 1 955 1 990 1 842 1 690 1
200 0 5 720 1 556 1 806 1 679 1 633 1
201 0 5 721 1 796 1 986 1 884 1 559 1
202 0 5 722 1 605 1 695 1 812 1 607 1
203 0 5 723 1 1016 1 735 1 947 1 719 1
204 0 5 724 1 776 1 530 1 1008 1 733 1
205 0 5 725 1 653 1 585 1 1008 1 733 1
206 0 5 726 1 666 1 778 1 1007 1 808 1
207 0 5 727 1 698 1 939 1 532 1 765 1
208 0 5 728 1 594 1 952 1 553 1 919 1
209 0 5 729 1 709 1 861 1 919 1 823 1
210 0 5 730 1 835 1 972 1 958 1 985 1
211 0 5 731 1 890 1 549 1 905 1 754 1
212 0 5 732 1 819 1 739 1 542 1 593 1
213 0 5 733 1 650 1 789 1 864 1 1008 1
214 0 5 734 1 691 1 855 1 916 1 616 1
215 0 5 735 1 559 1 947 1 955 1 986 1
216 0 5 736 1 561 1 889 1 676 1 1002 1
217 0 5 737 1 723 1 842 1 719 1 690 1
218 0 5 738 1 521 1 584 1 566 1 930 1
219 0 5 739 1 593 1 786 1 732 1 542 1
220 0 5 740 1 608 1 878 1 588 1 820 1
221 0 5 741 1 881 1 927 1 1010 1 920 1
222 0 5 742 1 531 1 580 1 932 1 772 1
223 0 5 743 1 964 1 558 1 621 1 610 1
224 0 5 744 1 706 1 568 1 915 1 825 1
225 0 5 745 1 792 1 694 1 851 1 900 1
226 0 5 746 1 832 1 788 1 590 1 774 1
227 0 5 747 1 856 1 547 1 579 1 555 1
228 0 5 748 1 1019 1 787 1 954 1 654 1
229 0 5 749 1 895 1 550 1 603 1 617 1
230 0 5 750 1 761 1 997 1 1017 1 993 1
231 0 5 751 1 996 1 932 1 682 1 580 1
232 0 5 752 1 667 1 871 1 533 1 692 1
233 0 5 753 1 950 1 1001 1 913 1 990 1
234 0 5 754 1 826 1 905 1 987 1 1004 1
235 0 5 755 1 727 1 939 1 726 1 778 1
236 0 5 756 1 811 1 693 1 884 1 810 1
237 0 5 757 1 632 1 785 1 700 1 800 1
238 0 5 758 1 572 1 563 1 937 1 714 1
239 0 5 759 1 991 1 677 1 790 1 926 1
240 0 5 760 1 568 1 821 1 629 1 825 1
241 0 5 761 1 750 1 1017 1 993 1 1014 1
242 0 5 762 1 764 1 906 1 571 1 974 1
243 0 5 763 1 521 1 930 1 640 1 781 1
244 0 5 764 1 1002 1 762 1 571 1 889 1
245 0 5 765 1 532 1 611 1 834 1 675 1
246 0 5 766 1 844 1 621 1 525 1 938 1
247 0 5 767 1 882 1 620 1 564 1 926 1
248 0 5 768 1 705 1 640 1 675 1 769 1
249 0 5 769 1 860 1 593 1 542 1 666 1
250 0 5 770 1 995 1 607 1 914 1 812 1
251 0 5 771 1 752 1 533 1 801 1 871 1
252 0 5 772 1 886 1 993 1 1014 1 677 1
253 0 5 773 1 1000 1 928 1 656 1 885 1
254 0 5 774 1 633 1 806 1 556 1 537 1
255 0 5 775 1 683 1 576 1 791 1 713 1
256 0 5 776 1 530 1 724 1 987 1 1008 1
257 0 5 777 1 665 1 817 1 979 1 940 1
258 0 5 778 1 726 1 1007 1 704 1 755 1
259 0 5 779 1 598 1 612 1 783 1 822 1
260 0 5 780 1 734 1 623 1 627 1 916 1
261 0 5 781 1 521 1 584 1 966 1 959 1
262 0 5 782 1 840 1 652 1 874 1 976 1
263 0 5 783 1 612 1 587 1 779 1 822 1
264 0 5 784 1 877 1 980 1 857 1 795 1
265 0 5 785 1 800 1 632 1 816 1 630 1
266 0 5 786 1 917 1 935 1 551 1 769 1
267 0 5 787 1 954 1 991 1 759 1 1014 1
268 0 5 788 1 746 1 832 1 774 1 744 1
269 0 5 789 1 551 1 650 1 543 1 704 1
270 0 5 790 1 759 1 655 1 926 1 839 1
271 0 5 791 1 576 1 898 1 683 1 775 1
272 0 5 792 1 694 1 851 1 770 1 995 1
273 0 5 793 1 804 1 582 1 622 1 845 1
274 0 5 794 1 910 1 670 1 1009 1 946 1
275 0 5 795 1 980 1 689 1 877 1 876 1
276 0 5 796 1 986 1 721 1 1016 1 719 1
277 0 5 797 1 521 1 584 1 865 1 738 1
278 0 5 798 1 618 1 658 1 667 1 562 1
279 0 5 799 1 847 1 707 1 976 1 885 1
280 0 5 800 1 630 1 785 1 632 1 757 1
281 0 5 801 1 875 1 880 1 897 1 533 1
282 0 5 802 1 654 1 909 1 954 1 748 1
283 0 5 803 1 678 1 617 1 972 1 714 1
284 0 5 804 1 845 1 841 1 793 1 522 1
285 0 5 805 1 533 1 718 1 709 1 871 1
286 0 5 806 1 948 1 774 1 720 1 537 1
287 0 5 807 1 1021 1 860 1 542 1 704 1
288 0 5 808 1 933 1 778 1 1005 1 858 1
289 0 5 809 1 668 1 526 1 1004 1 539 1
290 0 5 810 1 756 1 939 1 1005 1 611 1
291 0 5 811 1 567 1 756 1 884 1 693 1
292 0 5 812 1 852 1 974 1 607 1 722 1
293 0 5 813 1 981 1 690 1 712 1 737 1
294 0 5 814 1 950 1 990 1 1001 1 698 1
295 0 5 815 1 589 1 1021 1 563 1 758 1
296 0 5 816 1 682 1 785 1 956 1 800 1
297 0 5 817 1 940 1 839 1 546 1 925 1
298 0 5 818 1 918 1 927 1 923 1 583 1
299 0 5 819 1 890 1 650 1 739 1 542 1
300 0 5 820 1 946 1 897 1 662 1 794 1
301 0 5 821 1 760 1 629 1 575 1 568 1
302 0 5 822 1 624 1 763 1 862 1 913 1
303 0 5 823 1 645 1 615 1 729 1 861 1
304 0 5 824 1 661 1 869 1 889 1 896 1
305 0 5 825 1 603 1 548 1 706 1 915 1
306 0 5 826 1 935 1 650 1 987 1 754 1
307 0 5 827 1 934 1 552 1 1018 1 631 1
308 0 5 828 1 600 1 841 1 877 1 830 1
309 0 5 829 1 604 1 825 1 1006 1 821 1
310 0 5 830 1 619 1 600 1 841 1 876 1
311 0 5 831 1 613 1 590 1 603 1 746 1
312 0 5 832 1 744 1 788 1 746 1 915 1
313 0 5 833 1 941 1 814 1 698 1 583 1
314 0 5 834 1 747 1 765 1 532 1 675 1
315 0 5 835 1 958 1 730 1 972 1 617 1
316 0 5 836 1 622 1 660 1 793 1 885 1
317 0 5 837 1 1009 1 794 1 618 1 670 1
318 0 5 838 1 751 1 682 1 996 1 872 1
319 0 5 839 1 695 1 936 1 817 1 664 1
320 0 5 840 1 976 1 652 1 782 1 554 1
321 0 5 841 1 524 1 977 1 708 1 830 1
322 0 5 842 1 712 1 955 1 719 1 723 1
323 0 5 843 1 701 1 597 1 858 1 755 1
324 0 5 844 1 938 1 782 1 863 1 652 1
325 0 5 845 1 841 1 804 1 970 1 892 1
326 0 5 846 1 628 1 913 1 753 1 671 1
327 0 5 847 1 652 1 707 1 799 1 562 1
328 0 5 848 1 782 1 634 1 863 1 938 1
329 0 5 849 1 728 1 594 1 634 1 848 1
330 0 5 850 1 867 1 830 1 977 1 961 1
331 0 5 851 1 694 1 607 1 995 1 852 1
332 0 5 852 1 1015 1 812 1 695 1 974 1
333 0 5 853 1 681 1 574 1 557 1 670 1
334 0 5 854 1 609 1 669 1 943 1 779 1
335 0 5 855 1 916 1 659 1 944 1 672 1
336 0 5 856 1 547 1 555 1 579 1 666 1
337 0 5 857 1 591 1 997 1 750 1 1014 1
338 0 5 858 1 903 1 701 1 933 1 843 1
339 0 5 859 1 707 1 983 1 687 1 527 1
340 0 5 860 1 542 1 807 1 769 1 778 1
341 0 5 861 1 615 1 729 1 919 1 823 1
342 0 5 862 1 669 1 538 1 663 1 716 1
343 0 5 863 1 848 1 634 1 938 1 969 1
344 0 5 864 1 733 1 585 1 1008 1 724 1
345 0 5 865 1 797 1 521 1 584 1 959 1
346 0 5 866 1 749 1 550 1 895 1 896 1
347 0 5 867 1 961 1 565 1 956 1 800 1
348 0 5 868 1 928 1 944 1 1000 1 527 1
349 0 5 869 1 896 1 824 1 603 1 866 1
350 0 5 870 1 569 1 883 1 983 1 973 1
351 0 5 871 1 667 1 1009 1 718 1 794 1
352 0 5 872 1 838 1 638 1 993 1 751 1
353 0 5 873 1 1020 1 812 1 722 1 571 1
354 0 5 874 1 968 1 652 1 899 1 782 1
355 0 5 875 1 999 1 711 1 897 1 718 1
356 0 5 876 1 980 1 908 1 934 1 619 1
357 0 5 877 1 795 1 600 1 828 1 980 1
358 0 5 878 1 642 1 740 1 588 1 608 1
359 0 5 879 1 636 1 639 1 529 1 637 1
360 0 5 880 1 801 1 595 1 588 1 878 1
361 0 5 881 1 690 1 981 1 813 1 719 1
362 0 5 882 1 767 1 926 1 655 1 1019 1
363 0 5 883 1 983 1 859 1 569 1 870 1
364 0 5 884 1 693 1 698 1 796 1 756 1
365 0 5 885 1 793 1 622 1 970 1 845 1
366 0 5 886 1 993 1 772 1 997 1 664 1
367 0 5 887 1 975 1 599 1 669 1 642 1
368 0 5 888 1 586 1 971 1 540 1 963 1
369 0 5 889 1 736 1 561 1 824 1 1002 1
370 0 5 890 1 725 1 974 1 1008 1 1003 1
371 0 5 891 1 905 1 754 1 731 1 792 1
372 0 5 892 1 965 1 970 1 793 1 708 1
373 0 5 893 1 828 1 659 1 944 1 616 1
374 0 5 894 1 939 1 755 1 727 1 810 1
375 0 5 895 1 985 1 603 1 749 1 617 1
376 0 5 896 1 866 1 550 1 831 1 613 1
377 0 5 897 1 662 1 875 1 608 1 711 1
378 0 5 898 1 576 1 791 1 683 1 907 1
379 0 5 899 1 968 1 874 1 919 1 596 1
380 0 5 900 1 745 1 905 1 792 1 592 1
381 0 5 901 1 934 1 908 1 876 1 573 1
382 0 5 902 1 784 1 827 1 877 1 795 1
383 0 5 903 1 1005 1 810 1 858 1 808 1
384 0 5 904 1 789 1 704 1 921 1 653 1
385 0 5 905 1 770 1 900 1 792 1 745 1
386 0 5 906 1 585 1 1008 1 724 1 1002 1
387 0 5 907 1 637 1 557 1 641 1 702 1
388 0 5 908 1 901 1 876 1 536 1 619 1
389 0 5 909 1 802 1 748 1 654 1 839 1
390 0 5 910 1 626 1 962 1 521 1 670 1
391 0 5 911 1 918 1 579 1 941 1 611 1
392 0 5 912 1 649 1 608 1 598 1 612 1
393 0 5 913 1 846 1 822 1 753 1 612 1
394 0 5 914 1 770 1 731 1 601 1 974 1
395 0 5 915 1 548 1 825 1 1006 1 706 1
396 0 5 916 1 855 1 672 1 623 1 691 1
397 0 5 917 1 566 1 769 1 593 1 768 1
398 0 5 918 1 911 1 818 1 611 1 941 1
399 0 5 919 1 952 1 899 1 861 1 729 1
400 0 5 920 1 523 1 699 1 818 1 927 1
401 0 5 921 1 904 1 696 1 714 1 653 1
402 0 5 922 1 1003 1 643 1 732 1 739 1
403 0 5 923 1 583 1 833 1 818 1 918 1
404 0 5 924 1 648 1 604 1 534 1 824 1
405 0 5 925 1 777 1 942 1 907 1 951 1
406 0 5 926 1 655 1 790 1 948 1 806 1
407 0 5 927 1 920 1 923 1 741 1 699 1
408 0 5 928 1 868 1 773 1 554 1 656 1
409 0 5 929 1 641 1 636 1 637 1 879 1
410 0 5 930 1 521 1 738 1 781 1 640 1
411 0 5 931 1 646 1 970 1 713 1 656 1
412 0 5 932 1 688 1 996 1 580 1 682 1
413 0 5 933 1 858 1 843 1 808 1 701 1
414 0 5 934 1 827 1 901 1 600 1 877 1
415 0 5 935 1 807 1 542 1 1003 1 754 1
416 0 5 936 1 839 1 546 1 664 1 817 1
417 0 5 937 1 653 1 572 1 921 1 704 1
418 0 5 938 1 766 1 863 1 848 1 782 1
419 0 5 939 1 755 1 810 1 894 1 727 1
420 0 5 940 1 817 1 925 1 1018 1 591 1
421 0 5 941 1 765 1 579 1 532 1 911 1
422 0 5 942 1 1004 1 592 1 625 1 925 1
423 0 5 943 1 614 1 609 1 669 1 854 1
424 0 5 944 1 659 1 855 1 916 1 868 1
425 0 5 945 1 710 1 962 1 946 1 703 1
426 0 5 946 1 642 1 962 1 710 1 588 1
427 0 5 947 1 735 1 1016 1 955 1 986 1
428 0 5 948 1 988 1 806 1 926 1 676 1
429 0 5 949 1 945 1 626 1 569 1 962 1
430 0 5 950 1 753 1 814 1 1001 1 990 1
431 0 5 951 1 907 1 625 1 526 1 529 1
432 0 5 952 1 823 1 919 1 553 1 645 1
433 0 5 953 1 657 1 979 1 635 1 659 1
434 0 5 954 1 1014 1 787 1 991 1 772 1
435 0 5 955 1 947 1 1016 1 986 1 721 1
436 0 5 956 1 816 1 800 1 688 1 565 1
437 0 5 957 1 966 1 967 1 963 1 584 1
438 0 5 958 1 575 1 835 1 985 1 617 1
439 0 5 959 1 521 1 966 1 681 1 584 1
440 0 5 960 1 674 1 619 1 850 1 830 1
441 0 5 961 1 867 1 565 1 573 1 956 1
442 0 5 962 1 910 1 667 1 670 1 946 1
443 0 5 963 1 769 1 593 1 967 1 971 1
444 0 5 964 1 621 1 610 1 558 1 743 1
445 0 5 965 1 970 1 793 1 931 1 892 1
446 0 5 966 1 922 1 967 1 584 1 781 1
447 0 5 967 1 963 1 769 1 593 1 705 1
448 0 5 968 1 874 1 596 1 1009 1 618 1
449 0 5 969 1 849 1 553 1 634 1 952 1
450 0 5 970 1 931 1 845 1 646 1 793 1
451 0 5 971 1 586 1 747 1 547 1 856 1
452 0 5 972 1 730 1 803 1 835 1 714 1
453 0 5 973 1 606 1 929 1 983 1 641 1
454 0 5 974 1 812 1 762 1 890 1 1008 1
455 0 5 975 1 588 1 740 1 614 1 609 1
456 0 5 976 1 554 1 840 1 652 1 707 1
457 0 5 977 1 708 1 524 1 804 1 830 1
458 0 5 978 1 569 1 973 1 870 1 883 1
459 0 5 979 1 635 1 685 1 664 1 777 1
460 0 5 980 1 876 1 795 1 877 1 600 1
461 0 5 981 1 842 1 712 1 813 1 690 1
462 0 5 982 1 873 1 605 1 620 1 571 1
463 0 5 983 1 527 1 557 1 859 1 929 1
464 0 5 984 1 647 1 537 1 825 1 906 1
465 0 5 985 1 617 1 575 1 629 1 958 1
466 0 5 986 1 721 1 884 1 990 1 796 1
467 0 5 987 1 754 1 530 1 826 1 1004 1
468 0 5 988 1 926 1 620 1 655 1 948 1
469 0 5 989 1 717 1 818 1 699 1 918 1
470 0 5 990 1 671 1 986 1 1001 1 814 1
471 0 5 991 1 677 1 787 1 759 1 772 1
472 0 5 992 1 541 1 561 1 889 1 736 1
473 0 5 993 1 638 1 751 1 872 1 997 1
474 0 5 994 1 989 1 699 1 523 1 717 1
475 0 5 995 1 535 1 909 1 695 1 770 1
476 0 5 996 1 932 1 751 1 688 1 580 1
477 0 5 997 1 857 1 993 1 577 1 751 1
478 0 5 998 1 716 1 741 1 927 1 540 1
479 0 5 999 1 709 1 875 1 558 1 805 1
480 0 5 1000 1 576 1 773 1 944 1 928 1
481 0 5 1001 1 663 1 719 1 814 1 587 1
482 0 5 1002 1 676 1 764 1 537 1 889 1
483 0 5 1003 1 732 1 754 1 890 1 819 1
484 0 5 1004 1 625 1 942 1 987 1 826 1
485 0 5 1005 1 808 1 611 1 939 1 903 1
486 0 5 1006 1 548 1 725 1 915 1 762 1
487 0 5 1007 1 894 1 666 1 939 1 755 1
488 0 5 1008 1 724 1 974 1 725 1 776 1
489 0 5 1009 1 794 1 670 1 687 1 871 1
490 0 5 1010 1 719 1 842 1 881 1 927 1
491 0 5 1011 1 888 1 967 1 963 1 705 1
492 0 5 1012 1 700 1 630 1 757 1 800 1
493 0 5 1013 1 529 1 891 1 637 1 625 1
494 0 5 1014 1 772 1 1017 1 954 1 787 1
495 0 5 1015 1 592 1 987 1 776 1 852 1
496 0 5 1016 1 955 1 735 1 947 1 544 1
497 0 5 1017 1 761 1 1014 1 750 1 772 1
498 0 5 1018 1 552 1 591 1 940 1 857 1
499 0 5 1019 1 787 1 748 1 882 1 954 1
500 0 5 1020 1 571 1 695 1 722 1 812 1
501 0 5 1021 1 815 1 589 1 807 1 758 1
502 0 5 1022 0 521 1 1022 1 1023 1 1024 1
503 0 5 1023 0 521 1 1022 1 1023 1 1024 1
504 0 5 1024 0 521 1 1022 1 1023 1 1024 1
505 0 5 1025 0 521 1 1022 1 1023 1 1024 1
506 0 5 1026 0 521 1 1022 1 1023 1 1024 1
507 0 5 1027 0 521 1 1022 1 1023 1 1024 1
508 0 5 1028 0 521 1 1022 1 1023 1 1024 1
509 0 5 1029 0 521 1 1022 1 1023 1 1024 1
510 0 5 1030 0 521 1 1022 1 1023 1 1024 1
511 0 5 1031 0 521 1 1022 1 1023 1 1024 1
512 0 5 1032 0 521 1 1022 1 1023 1 1024 1
513 0 5 1033 0 521 1 1022 1 1023 1 1024 1
514 0 5 1034 0 521 1 1022 1 1023 1 1024 1
515 0 5 1035 0 521 1 1022 1 1023 1 1024 1
516 0 5 1036 0 521 1 1022 1 1023 1 1024 1
517 0 5 1037 0 521 1 1022 1 1023 1 1024 1
518 0 5 1038 0 521 1 1022 1 1023 1 1024 1
519 0 5 1039 0 521 1 1022 1 1023 1 1024 1
520 0 5 1040 0 521 1 1022 1 1023 1 1024 1
521 0 5 1 0 520 1 519 1 518 1 517 1
522 0 5 2 1 169 1 140 1 284 1 325 1
523 0 5 3 1 400 1 179 1 407 1 391 1
524 0 5 4 1 321 1 457 1 188 1 284 1
525 0 5 5 1 58 1 90 1 101 1 418 1
526 0 5 6 1 431 1 289 1 19 1 182 1
527 0 5 7 1 463 1 348 1 339 1 187 1
528 0 5 8 1 82 1 131 1 327 1 61 1
529 0 5 9 1 117 1 493 1 359 1 431 1
530 0 5 10 1 256 1 204 1 467 1 495 1
531 0 5 11 1 222 1 60 1 57 1 366 1
532 0 5 12 1 245 1 421 1 178 1 155 1
533 0 5 13 1 285 1 189 1 232 1 351 1
534 0 5 14 1 97 1 84 1 55 1 283 1
535 0 5 15 1 475 1 389 1 100 1 202 1
536 0 5 16 1 195 1 388 1 356 1 381 1
537 0 5 17 1 36 1 156 1 482 1 254 1
538 0 5 18 1 143 1 149 1 342 1 120 1
539 0 5 19 1 6 1 182 1 431 1 387 1
540 0 5 20 1 368 1 478 1 221 1 66 1
541 0 5 21 1 472 1 141 1 41 1 369 1
542 0 5 22 1 340 1 219 1 287 1 249 1
543 0 5 23 1 31 1 269 1 184 1 213 1
544 0 5 24 1 39 1 47 1 496 1 197 1
545 0 5 25 1 61 1 8 1 124 1 5 1
546 0 5 26 1 157 1 416 1 297 1 319 1
547 0 5 27 1 35 1 336 1 227 1 451 1
548 0 5 28 1 395 1 305 1 127 1 48 1
549 0 5 29 1 81 1 211 1 394 1 483 1
550 0 5 30 1 346 1 83 1 376 1 375 1
551 0 5 31 1 269 1 184 1 130 1 384 1
552 0 5 32 1 498 1 307 1 71 1 119 1
553 0 5 33 1 449 1 90 1 432 1 114 1
554 0 5 34 1 456 1 408 1 132 1 320 1
555 0 5 35 1 27 1 336 1 227 1 314 1
556 0 5 36 1 200 1 17 1 254 1 113 1
557 0 5 37 1 121 1 387 1 86 1 463 1
558 0 5 38 1 13 1 444 1 90 1 479 1
559 0 5 39 1 215 1 24 1 496 1 427 1
560 0 5 40 1 56 1 136 1 193 1 255 1
561 0 5 41 1 216 1 113 1 369 1 21 1
562 0 5 42 1 132 1 76 1 327 1 187 1
563 0 5 43 1 238 1 153 1 69 1 177 1
564 0 5 44 1 100 1 159 1 247 1 468 1
565 0 5 45 1 168 1 53 1 436 1 347 1
566 0 5 46 1 185 1 397 1 446 1 410 1
567 0 5 47 1 291 1 24 1 197 1 236 1
568 0 5 48 1 109 1 240 1 186 1 224 1
569 0 5 49 1 1 1 458 1 350 1 429 1
570 0 5 50 1 1 1 491 1 183 1 429 1
571 0 5 51 1 500 1 156 1 244 1 242 1
572 0 5 52 1 417 1 238 1 43 1 283 1
573 0 5 53 1 45 1 381 1 414 1 168 1
574 0 5 54 1 34 1 378 1 333 1 106 1
575 0 5 55 1 438 1 465 1 240 1 301 1
576 0 5 56 1 480 1 255 1 193 1 136 1
577 0 5 57 1 60 1 477 1 231 1 476 1
578 0 5 58 1 101 1 90 1 444 1 38 1
579 0 5 59 1 391 1 421 1 35 1 336 1
580 0 5 60 1 53 1 45 1 57 1 222 1
581 0 5 61 1 25 1 124 1 8 1 5 1
582 0 5 62 1 273 1 40 1 445 1 102 1
583 0 5 63 1 403 1 313 1 178 1 298 1
584 0 5 64 1 446 1 46 1 439 1 185 1
585 0 5 65 1 386 1 205 1 344 1 309 1
586 0 5 66 1 368 1 451 1 314 1 443 1
587 0 5 67 1 143 1 263 1 423 1 92 1
588 0 5 68 1 75 1 455 1 358 1 122 1
589 0 5 69 1 295 1 501 1 287 1 35 1
590 0 5 70 1 93 1 311 1 226 1 254 1
591 0 5 71 1 337 1 498 1 307 1 297 1
592 0 5 72 1 495 1 422 1 332 1 467 1
593 0 5 73 1 219 1 249 1 443 1 447 1
594 0 5 74 1 208 1 329 1 114 1 328 1
595 0 5 75 1 360 1 190 1 68 1 220 1
596 0 5 76 1 42 1 132 1 448 1 138 1
597 0 5 77 1 181 1 323 1 194 1 160 1
598 0 5 78 1 129 1 259 1 92 1 89 1
599 0 5 79 1 367 1 183 1 122 1 455 1
600 0 5 80 1 308 1 357 1 310 1 414 1
601 0 5 81 1 394 1 29 1 211 1 483 1
602 0 5 82 1 8 1 327 1 365 1 131 1
603 0 5 83 1 305 1 375 1 70 1 349 1
604 0 5 84 1 309 1 14 1 128 1 404 1
605 0 5 85 1 202 1 462 1 87 1 247 1
606 0 5 86 1 453 1 121 1 37 1 49 1
607 0 5 87 1 292 1 174 1 331 1 250 1
608 0 5 88 1 220 1 392 1 68 1 122 1
609 0 5 89 1 334 1 94 1 423 1 455 1
610 0 5 90 1 444 1 38 1 5 1 101 1
611 0 5 91 1 59 1 245 1 398 1 485 1
612 0 5 92 1 263 1 78 1 259 1 89 1
613 0 5 93 1 311 1 30 1 83 1 376 1
614 0 5 94 1 79 1 423 1 455 1 89 1
615 0 5 95 1 125 1 303 1 341 1 209 1
616 0 5 96 1 107 1 373 1 396 1 214 1
617 0 5 97 1 465 1 55 1 283 1 14 1
618 0 5 98 1 278 1 147 1 448 1 351 1
619 0 5 99 1 310 1 356 1 80 1 440 1
620 0 5 100 1 44 1 247 1 468 1 159 1
621 0 5 101 1 444 1 38 1 90 1 13 1
622 0 5 102 1 316 1 365 1 131 1 273 1
623 0 5 103 1 260 1 396 1 119 1 152 1
624 0 5 104 1 302 1 426 1 18 1 243 1
625 0 5 105 1 484 1 422 1 431 1 9 1
626 0 5 106 1 390 1 150 1 429 1 172 1
627 0 5 107 1 86 1 260 1 96 1 214 1
628 0 5 108 1 151 1 326 1 263 1 92 1
629 0 5 109 1 48 1 240 1 465 1 301 1
630 0 5 110 1 280 1 492 1 330 1 195 1
631 0 5 111 1 139 1 171 1 307 1 308 1
632 0 5 112 1 237 1 265 1 280 1 110 1
633 0 5 113 1 159 1 254 1 21 1 200 1
634 0 5 114 1 343 1 329 1 328 1 449 1
635 0 5 115 1 165 1 459 1 137 1 433 1
636 0 5 116 1 409 1 359 1 117 1 121 1
637 0 5 117 1 387 1 9 1 359 1 409 1
638 0 5 118 1 473 1 352 1 318 1 231 1
639 0 5 119 1 9 1 359 1 152 1 103 1
640 0 5 120 1 185 1 18 1 248 1 342 1
641 0 5 121 1 409 1 387 1 37 1 431 1
642 0 5 122 1 358 1 426 1 68 1 455 1
643 0 5 123 1 402 1 483 1 493 1 234 1
644 0 5 124 1 25 1 61 1 131 1 8 1
645 0 5 125 1 303 1 432 1 209 1 38 1
646 0 5 126 1 411 1 193 1 450 1 136 1
647 0 5 127 1 464 1 186 1 305 1 17 1
648 0 5 128 1 404 1 349 1 14 1 84 1
649 0 5 129 1 392 1 78 1 259 1 92 1
650 0 5 130 1 213 1 299 1 269 1 306 1
651 0 5 131 1 124 1 8 1 82 1 25 1
652 0 5 132 1 327 1 320 1 262 1 76 1
653 0 5 133 1 417 1 205 1 401 1 194 1
654 0 5 134 1 282 1 494 1 497 1 389 1
655 0 5 135 1 406 1 270 1 175 1 362 1
656 0 5 136 1 193 1 408 1 365 1 253 1
657 0 5 137 1 433 1 111 1 307 1 321 1
658 0 5 138 1 76 1 278 1 42 1 147 1
659 0 5 139 1 424 1 335 1 373 1 396 1
660 0 5 140 1 2 1 316 1 169 1 308 1
661 0 5 141 1 304 1 21 1 369 1 216 1
662 0 5 142 1 377 1 191 1 209 1 198 1
663 0 5 143 1 18 1 342 1 67 1 149 1
664 0 5 144 1 157 1 416 1 459 1 11 1
665 0 5 145 1 257 1 297 1 495 1 175 1
666 0 5 146 1 206 1 487 1 249 1 27 1
667 0 5 147 1 351 1 232 1 278 1 442 1
668 0 5 148 1 289 1 306 1 19 1 182 1
669 0 5 149 1 342 1 79 1 334 1 183 1
670 0 5 150 1 167 1 98 1 106 1 172 1
671 0 5 151 1 108 1 470 1 326 1 233 1
672 0 5 152 1 103 1 119 1 396 1 335 1
673 0 5 153 1 177 1 69 1 158 1 283 1
674 0 5 154 1 440 1 99 1 457 1 310 1
675 0 5 155 1 12 1 178 1 245 1 248 1
676 0 5 156 1 482 1 51 1 216 1 369 1
677 0 5 157 1 471 1 239 1 252 1 366 1
678 0 5 158 1 153 1 283 1 177 1 465 1
679 0 5 159 1 41 1 200 1 113 1 254 1
680 0 5 160 1 77 1 194 1 238 1 184 1
681 0 5 161 1 106 1 333 1 439 1 37 1
682 0 5 162 1 296 1 318 1 412 1 168 1
683 0 5 163 1 255 1 56 1 271 1 193 1
684 0 5 164 1 166 1 50 1 423 1 334 1
685 0 5 165 1 115 1 137 1 459 1 310 1
686 0 5 166 1 50 1 164 1 423 1 94 1
687 0 5 167 1 34 1 339 1 98 1 150 1
688 0 5 168 1 412 1 436 1 477 1 60 1
689 0 5 169 1 275 1 2 1 460 1 357 1
690 0 5 170 1 361 1 293 1 461 1 199 1
691 0 5 171 1 214 1 152 1 103 1 139 1
692 0 5 172 1 150 1 167 1 232 1 278 1
693 0 5 173 1 364 1 236 1 178 1 419 1
694 0 5 174 1 331 1 272 1 225 1 250 1
695 0 5 175 1 319 1 500 1 202 1 332 1
696 0 5 176 1 194 1 133 1 77 1 160 1
697 0 5 177 1 69 1 295 1 153 1 43 1
698 0 5 178 1 364 1 173 1 313 1 155 1
699 0 5 179 1 3 1 400 1 407 1 298 1
700 0 5 180 1 492 1 237 1 195 1 110 1
701 0 5 181 1 323 1 338 1 77 1 413 1
702 0 5 182 1 19 1 387 1 431 1 6 1
703 0 5 183 1 426 1 149 1 122 1 79 1
704 0 5 184 1 384 1 160 1 287 1 258 1
705 0 5 185 1 248 1 120 1 447 1 410 1
706 0 5 186 1 224 1 83 1 127 1 305 1
707 0 5 187 1 279 1 339 1 327 1 7 1
708 0 5 188 1 457 1 325 1 4 1 372 1
709 0 5 189 1 479 1 209 1 38 1 285 1
710 0 5 190 1 425 1 183 1 426 1 75 1
711 0 5 191 1 198 1 355 1 285 1 209 1
712 0 5 192 1 322 1 461 1 490 1 293 1
713 0 5 193 1 126 1 136 1 411 1 365 1
714 0 5 194 1 52 1 160 1 133 1 401 1
715 0 5 195 1 16 1 436 1 162 1 296 1
716 0 5 196 1 478 1 313 1 342 1 164 1
717 0 5 197 1 469 1 383 1 485 1 298 1
718 0 5 198 1 191 1 351 1 98 1 285 1
719 0 5 199 1 490 1 322 1 217 1 361 1
720 0 5 200 1 113 1 159 1 36 1 156 1
721 0 5 201 1 39 1 466 1 24 1 435 1
722 0 5 202 1 87 1 500 1 175 1 292 1
723 0 5 203 1 217 1 199 1 322 1 170 1
724 0 5 204 1 488 1 256 1 386 1 454 1
725 0 5 205 1 370 1 133 1 488 1 454 1
726 0 5 206 1 258 1 146 1 487 1 235 1
727 0 5 207 1 419 1 374 1 155 1 146 1
728 0 5 208 1 329 1 33 1 432 1 114 1
729 0 5 209 1 189 1 13 1 341 1 399 1
730 0 5 210 1 452 1 315 1 438 1 158 1
731 0 5 211 1 29 1 394 1 81 1 385 1
732 0 5 212 1 483 1 219 1 402 1 22 1
733 0 5 213 1 344 1 205 1 130 1 65 1
734 0 5 214 1 260 1 107 1 152 1 103 1
735 0 5 215 1 427 1 496 1 203 1 435 1
736 0 5 216 1 369 1 41 1 482 1 156 1
737 0 5 217 1 192 1 293 1 461 1 322 1
738 0 5 218 1 46 1 185 1 410 1 64 1
739 0 5 219 1 73 1 22 1 299 1 447 1
740 0 5 220 1 68 1 358 1 88 1 455 1
741 0 5 221 1 478 1 20 1 407 1 400 1
742 0 5 222 1 57 1 60 1 412 1 366 1
743 0 5 223 1 444 1 101 1 13 1 90 1
744 0 5 224 1 312 1 186 1 83 1 127 1
745 0 5 225 1 380 1 385 1 272 1 174 1
746 0 5 226 1 268 1 70 1 93 1 312 1
747 0 5 227 1 314 1 66 1 451 1 336 1
748 0 5 228 1 134 1 499 1 494 1 389 1
749 0 5 229 1 346 1 30 1 375 1 465 1
750 0 5 230 1 241 1 337 1 497 1 494 1
751 0 5 231 1 318 1 476 1 477 1 473 1
752 0 5 232 1 251 1 13 1 147 1 172 1
753 0 5 233 1 430 1 393 1 326 1 67 1
754 0 5 234 1 467 1 371 1 483 1 306 1
755 0 5 235 1 419 1 374 1 323 1 338 1
756 0 5 236 1 290 1 291 1 173 1 47 1
757 0 5 237 1 180 1 492 1 110 1 280 1
758 0 5 238 1 43 1 194 1 501 1 287 1
759 0 5 239 1 270 1 267 1 471 1 499 1
760 0 5 240 1 301 1 48 1 109 1 186 1
761 0 5 241 1 497 1 230 1 494 1 366 1
762 0 5 242 1 84 1 244 1 454 1 500 1
763 0 5 243 1 104 1 426 1 302 1 18 1
764 0 5 244 1 242 1 482 1 353 1 156 1
765 0 5 245 1 421 1 12 1 91 1 59 1
766 0 5 246 1 418 1 101 1 5 1 25 1
767 0 5 247 1 362 1 100 1 44 1 15 1
768 0 5 248 1 155 1 146 1 249 1 12 1
769 0 5 249 1 447 1 73 1 443 1 340 1
770 0 5 250 1 394 1 272 1 331 1 174 1
771 0 5 251 1 281 1 172 1 232 1 13 1
772 0 5 252 1 494 1 366 1 157 1 434 1
773 0 5 253 1 136 1 408 1 480 1 348 1
774 0 5 254 1 141 1 36 1 268 1 113 1
775 0 5 255 1 56 1 193 1 126 1 445 1
776 0 5 256 1 204 1 488 1 454 1 467 1
777 0 5 257 1 405 1 297 1 420 1 459 1
778 0 5 258 1 184 1 160 1 206 1 288 1
779 0 5 259 1 89 1 78 1 263 1 92 1
780 0 5 260 1 86 1 409 1 103 1 214 1
781 0 5 261 1 64 1 161 1 106 1 1 1
782 0 5 262 1 328 1 320 1 324 1 132 1
783 0 5 263 1 92 1 259 1 89 1 78 1
784 0 5 264 1 382 1 275 1 460 1 307 1
785 0 5 265 1 237 1 296 1 162 1 280 1
786 0 5 266 1 219 1 73 1 130 1 31 1
787 0 5 267 1 499 1 434 1 228 1 471 1
788 0 5 268 1 70 1 226 1 312 1 254 1
789 0 5 269 1 384 1 213 1 184 1 130 1
790 0 5 270 1 135 1 239 1 406 1 362 1
791 0 5 271 1 163 1 378 1 56 1 255 1
792 0 5 272 1 225 1 385 1 371 1 380 1
793 0 5 273 1 445 1 365 1 102 1 316 1
794 0 5 274 1 489 1 351 1 98 1 442 1
795 0 5 275 1 357 1 460 1 356 1 169 1
796 0 5 276 1 201 1 24 1 39 1 466 1
797 0 5 277 1 345 1 148 1 446 1 439 1
798 0 5 278 1 138 1 147 1 42 1 172 1
799 0 5 279 1 131 1 187 1 327 1 365 1
800 0 5 280 1 265 1 436 1 237 1 110 1
801 0 5 281 1 360 1 75 1 232 1 190 1
802 0 5 282 1 389 1 134 1 494 1 497 1
803 0 5 283 1 158 1 153 1 194 1 52 1
804 0 5 284 1 273 1 325 1 140 1 2 1
805 0 5 285 1 13 1 189 1 479 1 209 1
806 0 5 286 1 254 1 200 1 159 1 406 1
807 0 5 287 1 22 1 340 1 184 1 501 1
808 0 5 288 1 485 1 413 1 258 1 383 1
809 0 5 289 1 105 1 6 1 306 1 19 1
810 0 5 290 1 383 1 419 1 236 1 197 1
811 0 5 291 1 47 1 236 1 197 1 290 1
812 0 5 292 1 332 1 454 1 87 1 175 1
813 0 5 293 1 170 1 361 1 461 1 192 1
814 0 5 294 1 430 1 313 1 196 1 470 1
815 0 5 295 1 501 1 287 1 69 1 340 1
816 0 5 296 1 162 1 436 1 265 1 168 1
817 0 5 297 1 420 1 459 1 319 1 71 1
818 0 5 298 1 3 1 398 1 179 1 391 1
819 0 5 299 1 212 1 483 1 22 1 219 1
820 0 5 300 1 142 1 220 1 88 1 426 1
821 0 5 301 1 97 1 240 1 109 1 176 1
822 0 5 302 1 393 1 18 1 259 1 149 1
823 0 5 303 1 432 1 38 1 209 1 95 1
824 0 5 304 1 128 1 141 1 369 1 349 1
825 0 5 305 1 84 1 309 1 127 1 186 1
826 0 5 306 1 234 1 467 1 484 1 256 1
827 0 5 307 1 414 1 152 1 382 1 171 1
828 0 5 308 1 373 1 357 1 139 1 169 1
829 0 5 309 1 14 1 28 1 240 1 65 1
830 0 5 310 1 80 1 308 1 330 1 99 1
831 0 5 311 1 93 1 83 1 376 1 349 1
832 0 5 312 1 226 1 268 1 70 1 93 1
833 0 5 313 1 63 1 403 1 196 1 298 1
834 0 5 314 1 66 1 245 1 421 1 12 1
835 0 5 315 1 210 1 438 1 283 1 452 1
836 0 5 316 1 140 1 131 1 82 1 2 1
837 0 5 317 1 167 1 150 1 489 1 333 1
838 0 5 318 1 352 1 118 1 477 1 473 1
839 0 5 319 1 416 1 297 1 26 1 175 1
840 0 5 320 1 262 1 456 1 132 1 34 1
841 0 5 321 1 325 1 308 1 310 1 111 1
842 0 5 322 1 461 1 199 1 217 1 490 1
843 0 5 323 1 181 1 413 1 338 1 77 1
844 0 5 324 1 246 1 132 1 343 1 101 1
845 0 5 325 1 284 1 450 1 365 1 273 1
846 0 5 326 1 393 1 67 1 108 1 151 1
847 0 5 327 1 279 1 187 1 132 1 42 1
848 0 5 328 1 343 1 114 1 418 1 329 1
849 0 5 329 1 449 1 114 1 33 1 208 1
850 0 5 330 1 154 1 457 1 310 1 440 1
851 0 5 331 1 174 1 272 1 250 1 225 1
852 0 5 332 1 175 1 292 1 174 1 87 1
853 0 5 333 1 54 1 106 1 34 1 378 1
854 0 5 334 1 149 1 94 1 89 1 423 1
855 0 5 335 1 396 1 139 1 424 1 214 1
856 0 5 336 1 227 1 35 1 27 1 66 1
857 0 5 337 1 477 1 32 1 71 1 366 1
858 0 5 338 1 413 1 181 1 383 1 323 1
859 0 5 339 1 172 1 463 1 187 1 363 1
860 0 5 340 1 249 1 22 1 287 1 27 1
861 0 5 341 1 95 1 399 1 209 1 125 1
862 0 5 342 1 164 1 143 1 18 1 155 1
863 0 5 343 1 5 1 418 1 328 1 324 1
864 0 5 344 1 65 1 213 1 205 1 488 1
865 0 5 345 1 148 1 446 1 277 1 439 1
866 0 5 346 1 376 1 30 1 349 1 141 1
867 0 5 347 1 330 1 441 1 53 1 45 1
868 0 5 348 1 7 1 408 1 480 1 253 1
869 0 5 349 1 304 1 128 1 83 1 141 1
870 0 5 350 1 1 1 458 1 363 1 106 1
871 0 5 351 1 147 1 198 1 232 1 98 1
872 0 5 352 1 118 1 473 1 318 1 231 1
873 0 5 353 1 462 1 85 1 87 1 202 1
874 0 5 354 1 448 1 132 1 379 1 76 1
875 0 5 355 1 281 1 479 1 191 1 209 1
876 0 5 356 1 460 1 381 1 388 1 275 1
877 0 5 357 1 264 1 460 1 275 1 308 1
878 0 5 358 1 122 1 68 1 220 1 455 1
879 0 5 359 1 116 1 117 1 9 1 119 1
880 0 5 360 1 75 1 190 1 281 1 68 1
881 0 5 361 1 221 1 170 1 490 1 3 1
882 0 5 362 1 247 1 499 1 15 1 175 1
883 0 5 363 1 1 1 350 1 458 1 106 1
884 0 5 364 1 173 1 236 1 47 1 291 1
885 0 5 365 1 102 1 348 1 253 1 273 1
886 0 5 366 1 252 1 494 1 497 1 157 1
887 0 5 367 1 79 1 183 1 122 1 149 1
888 0 5 368 1 491 1 50 1 447 1 451 1
889 0 5 369 1 216 1 304 1 482 1 156 1
890 0 5 370 1 299 1 211 1 454 1 483 1
891 0 5 371 1 123 1 493 1 211 1 483 1
892 0 5 372 1 188 1 325 1 445 1 457 1
893 0 5 373 1 96 1 214 1 480 1 424 1
894 0 5 374 1 487 1 419 1 91 1 146 1
895 0 5 375 1 229 1 465 1 346 1 30 1
896 0 5 376 1 349 1 83 1 141 1 304 1
897 0 5 377 1 191 1 198 1 355 1 281 1
898 0 5 378 1 37 1 271 1 387 1 121 1
899 0 5 379 1 74 1 399 1 448 1 76 1
900 0 5 380 1 385 1 225 1 9 1 105 1
901 0 5 381 1 388 1 414 1 356 1 16 1
902 0 5 382 1 171 1 103 1 152 1 264 1
903 0 5 383 1 197 1 338 1 485 1 290 1
904 0 5 384 1 401 1 176 1 133 1 184 1
905 0 5 385 1 371 1 234 1 380 1 272 1
906 0 5 386 1 51 1 242 1 65 1 454 1
907 0 5 387 1 116 1 431 1 359 1 121 1
908 0 5 388 1 16 1 381 1 356 1 414 1
909 0 5 389 1 15 1 475 1 282 1 134 1
910 0 5 390 1 442 1 274 1 106 1 1 1
911 0 5 391 1 398 1 59 1 91 1 421 1
912 0 5 392 1 88 1 129 1 259 1 92 1
913 0 5 393 1 67 1 326 1 143 1 233 1
914 0 5 394 1 81 1 250 1 211 1 370 1
915 0 5 395 1 127 1 186 1 224 1 305 1
916 0 5 396 1 335 1 214 1 152 1 424 1
917 0 5 397 1 266 1 248 1 148 1 46 1
918 0 5 398 1 391 1 298 1 59 1 421 1
919 0 5 399 1 432 1 13 1 74 1 379 1
920 0 5 400 1 407 1 179 1 221 1 3 1
921 0 5 401 1 176 1 133 1 384 1 417 1
922 0 5 402 1 446 1 437 1 447 1 123 1
923 0 5 403 1 407 1 298 1 196 1 398 1
924 0 5 404 1 128 1 304 1 84 1 14 1
925 0 5 405 1 420 1 119 1 105 1 422 1
926 0 5 406 1 468 1 135 1 44 1 362 1
927 0 5 407 1 221 1 298 1 20 1 196 1
928 0 5 408 1 348 1 136 1 253 1 7 1
929 0 5 409 1 86 1 453 1 463 1 116 1
930 0 5 410 1 120 1 18 1 185 1 243 1
931 0 5 411 1 450 1 445 1 126 1 193 1
932 0 5 412 1 476 1 168 1 231 1 222 1
933 0 5 413 1 288 1 338 1 383 1 485 1
934 0 5 414 1 381 1 307 1 356 1 460 1
935 0 5 415 1 130 1 306 1 213 1 299 1
936 0 5 416 1 26 1 319 1 297 1 157 1
937 0 5 417 1 52 1 238 1 43 1 29 1
938 0 5 418 1 324 1 5 1 328 1 114 1
939 0 5 419 1 374 1 290 1 485 1 91 1
940 0 5 420 1 32 1 297 1 498 1 71 1
941 0 5 421 1 91 1 59 1 313 1 391 1
942 0 5 422 1 72 1 105 1 484 1 405 1
943 0 5 423 1 94 1 334 1 89 1 164 1
944 0 5 424 1 480 1 348 1 139 1 373 1
945 0 5 425 1 429 1 183 1 426 1 190 1
946 0 5 426 1 122 1 183 1 190 1 300 1
947 0 5 427 1 435 1 496 1 215 1 203 1
948 0 5 428 1 286 1 406 1 468 1 135 1
949 0 5 429 1 1 1 458 1 425 1 49 1
950 0 5 430 1 233 1 294 1 470 1 196 1
951 0 5 431 1 105 1 117 1 19 1 182 1
952 0 5 432 1 399 1 38 1 208 1 33 1
953 0 5 433 1 111 1 307 1 139 1 414 1
954 0 5 434 1 267 1 134 1 494 1 228 1
955 0 5 435 1 496 1 427 1 199 1 322 1
956 0 5 436 1 296 1 168 1 112 1 16 1
957 0 5 437 1 1 1 491 1 447 1 443 1
958 0 5 438 1 315 1 55 1 465 1 283 1
959 0 5 439 1 161 1 345 1 446 1 106 1
960 0 5 440 1 99 1 154 1 169 1 310 1
961 0 5 441 1 347 1 436 1 45 1 280 1
962 0 5 442 1 425 1 390 1 426 1 147 1
963 0 5 443 1 447 1 437 1 491 1 73 1
964 0 5 444 1 223 1 90 1 13 1 101 1
965 0 5 445 1 372 1 325 1 188 1 450 1
966 0 5 446 1 437 1 439 1 1 1 185 1
967 0 5 447 1 437 1 446 1 443 1 185 1
968 0 5 448 1 379 1 138 1 399 1 76 1
969 0 5 449 1 33 1 114 1 90 1 343 1
970 0 5 450 1 445 1 365 1 325 1 372 1
971 0 5 451 1 368 1 443 1 66 1 27 1
972 0 5 452 1 158 1 210 1 194 1 283 1
973 0 5 453 1 49 1 458 1 429 1 463 1
974 0 5 454 1 488 1 292 1 370 1 205 1
975 0 5 455 1 367 1 79 1 89 1 94 1
976 0 5 456 1 320 1 279 1 34 1 40 1
977 0 5 457 1 4 1 321 1 188 1 284 1
978 0 5 458 1 1 1 106 1 261 1 161 1
979 0 5 459 1 137 1 53 1 71 1 420 1
980 0 5 460 1 275 1 356 1 264 1 80 1
981 0 5 461 1 293 1 361 1 170 1 490 1
982 0 5 462 1 85 1 216 1 244 1 247 1
983 0 5 463 1 339 1 49 1 7 1 363 1
984 0 5 464 1 17 1 386 1 482 1 304 1
985 0 5 465 1 375 1 55 1 438 1 283 1
986 0 5 466 1 470 1 201 1 24 1 435 1
987 0 5 467 1 495 1 234 1 72 1 484 1
988 0 5 468 1 100 1 51 1 428 1 44 1
989 0 5 469 1 474 1 298 1 398 1 391 1
990 0 5 470 1 151 1 294 1 199 1 466 1
991 0 5 471 1 239 1 267 1 434 1 157 1
992 0 5 472 1 41 1 216 1 369 1 21 1
993 0 5 473 1 366 1 477 1 241 1 252 1
994 0 5 474 1 179 1 3 1 383 1 485 1
995 0 5 475 1 250 1 331 1 272 1 174 1
996 0 5 476 1 231 1 412 1 318 1 477 1
997 0 5 477 1 230 1 337 1 366 1 168 1
998 0 5 478 1 20 1 221 1 407 1 63 1
999 0 5 479 1 355 1 189 1 285 1 209 1
1000 0 5 480 1 253 1 348 1 408 1 365 1
1001 0 5 481 1 233 1 470 1 294 1 108 1
1002 0 5 482 1 244 1 156 1 216 1 51 1
1003 0 5 483 1 402 1 123 1 370 1 211 1
1004 0 5 484 1 422 1 105 1 467 1 289 1
1005 0 5 485 1 383 1 91 1 290 1 288 1
1006 0 5 486 1 28 1 309 1 395 1 240 1
1007 0 5 487 1 146 1 258 1 206 1 288 1
1008 0 5 488 1 386 1 454 1 205 1 370 1
1009 0 5 489 1 98 1 351 1 448 1 198 1
1010 0 5 490 1 196 1 221 1 461 1 361 1
1011 0 5 491 1 1 1 437 1 50 1 46 1
1012 0 5 492 1 110 1 180 1 330 1 195 1
1013 0 5 493 1 123 1 289 1 277 1 105 1
1014 0 5 494 1 434 1 497 1 267 1 252 1
1015 0 5 495 1 332 1 145 1 72 1 467 1
1016 0 5 496 1 203 1 435 1 427 1 199 1
1017 0 5 497 1 241 1 337 1 494 1 230 1
1018 0 5 498 1 71 1 32 1 420 1 307 1
1019 0 5 499 1 228 1 15 1 134 1 362 1
1020 0 5 500 1 353 1 51 1 175 1 468 1
1021 0 5 501 1 287 1 295 1 69 1 340 1
1022 0 5 502 0 520 1 519 1 518 1 517 1
1023 0 5 503 0 520 1 519 1 518 1 517 1
1024 0 5 504 0 520 1 519 1 518 1 517 1
1025 0 5 505 0 520 1 519 1 518 1 517 1
1026 0 5 506 0 520 1 519 1 518 1 517 1
1027 0 5 507 0 520 1 519 1 518 1 517 1
1028 0 5 508 0 520 1 519 1 518 1 517 1
1029 0 5 509 0 520 1 519 1 518 1 517 1
1030 0 5 510 0 520 1 519 1 518 1 517 1
1031 0 5 511 0 520 1 519 1 518 1 517 1
1032 0 5 512 0 520 1 519 1 518 1 517 1
1033 0 5 513 0 520 1 519 1 518 1 517 1
1034 0 5 514 0 520 1 519 1 518 1 517 1
1035 0 5 515 0 520 1 519 1 518 1 517 1
1036 0 5 516 0 520 1 519 1 518 1 517 1
1037 0 5 517 0 520 1 519 1 518 1 517 1
1038 0 5 518 0 520 1 519 1 518 1 517 1
1039 0 5 519 0 520 1 519 1 518 1 517 1
1040 0 5 520 0 520 1 519 1 518 1 517 1
-1
EOF
